100
32
7
11
10
10
5
13
6
30
17
32
5
31
22
27
4
16
15
31
14
2
14
20
29
9
21
15
8
31
2
29
32
7
19
26
23
31
13
30
11
11
23
5
14
18
26
19
16
13
26
15
18
28
17
19
23
27
16
24
20
26
13
5
24
5
1
7
4
30
32
12
23
3
17
26
2
30
19
22
24
23
28
23
13
22
17
17
18
28
25
22
11
9
4
7
28
11
17
7
31
31